60
100
100
38 30 51 90 45 21 9 90 18 81 65 12 27 38 33 55 27 38 29 4 54 38 24 64 6 55 51 90 36 90 26 64 29 12 20 81 60 21 22 21 60 81 38 64 11 4 44 55 71 30 72 90 15 64 45 55 76 4 60 47 24 47 26 47 27 4 54 90 38 38 20 4 33 30 33 55 71 30 56 12 18 21 22 55 49 73 26 64 51 64 60 12 78 4 74 81 27 73 51 90 9 12 42 30 51 30 26 12 6 21 72 55 11 73 71 73 54 4 62 4 
